c Random Network
p min 10 20
n 1 1
n 10 -1
c Transformed from a max-flow problem.
a 	 7	9	0	42	0
a 	 6	1	0	34	0
a 	 1	6	0	17	0
a 	 5	2	0	3	0
a 	 5	1	0	31	0
a 	 8	10	0	13	0
a 	 4	10	0	12	0
a 	 5	4	0	33	0
a 	 4	1	0	6	0
a 	 2	7	0	20	0
a 	 6	8	0	5	0
a 	 3	4	0	13	0
a 	 5	7	0	12	0
a 	 10	7	0	29	0
a 	 9	7	0	40	0
a 	 2	5	0	45	0
a 	 2	3	0	35	0
a 	 3	1	0	14	0
a 	 9	5	0	14	0
a 	 8	5	0	9	0
